c Random 7-CNF over 40 variables and 80 clauses
c Generated with `cnfgen`
c (C) 2012-2016 Massimo Lauria <lauria.massimo@gmail.com>
c https://massimolauria.github.io/cnfgen
c
c COMMAND LINE: cnfgen --output tmp-7-40-80.dimacs --output-format dimacs randkcnf 7 40 80
c
c sdimacs generated by gen-sdimacs
c
p cnf 40 80
r 0.5 1 2 3 4 5 6 7 8 9 10 11 12 13 14 15 16 17 18 19 20 0
e  21 22 23 24 25 26 27 28 29 30 31 32 33 34 35 36 37 38 39 40 0
8 -13 15 -17 19 -26 27 0
3 -13 15 -19 23 26 -33 0
10 11 -12 21 26 29 -36 0
-6 8 -11 25 -29 -32 36 0
3 -8 10 14 15 22 34 0
-2 3 -17 20 29 30 39 0
-1 17 24 25 26 -33 37 0
7 -9 10 20 25 28 38 0
1 -4 10 34 -35 -36 40 0
3 8 -10 14 -25 -35 -40 0
5 -8 17 24 -31 32 34 0
-2 -8 -12 -22 26 -27 -28 0
2 9 13 -21 -24 -27 29 0
-2 3 9 -12 -29 30 -40 0
-2 -11 12 -18 -31 -37 -40 0
8 10 -14 28 31 -35 -36 0
3 -4 -11 -20 22 -23 -38 0
-3 5 8 19 -30 31 -33 0
3 -15 -18 22 -26 31 39 0
-1 -10 11 18 -22 -34 36 0
-3 -12 28 31 -32 33 40 0
-4 6 -8 12 19 -29 -38 0
-10 -14 17 20 -26 29 -38 0
-11 -13 14 -22 31 39 -40 0
5 -17 25 -29 34 -36 37 0
6 -10 14 -19 29 30 -37 0
-6 19 -23 26 33 34 -38 0
1 2 -15 -16 21 25 -30 0
1 -3 7 14 -17 -30 37 0
2 -9 13 15 -17 31 34 0
7 -8 -11 20 32 -36 -40 0
-3 -10 -15 18 24 35 -40 0
19 22 23 24 -27 -34 36 0
10 -16 20 25 33 -34 -37 0
1 -2 -11 -19 20 -30 -32 0
-2 8 16 18 -22 -26 -40 0
-2 6 -7 19 22 30 -40 0
-1 -8 15 -16 -26 -29 -38 0
-3 -4 -6 10 20 34 -35 0
-5 -8 9 -10 16 -21 39 0
-9 20 22 -37 -38 -39 -40 0
3 5 13 21 32 -36 39 0
-2 11 14 -17 -31 36 37 0
9 -17 -24 -29 -32 -38 -39 0
-7 13 -16 -23 -30 -32 -37 0
1 -2 7 -16 -32 33 38 0
5 -16 27 30 -32 -36 -38 0
-3 9 -18 22 -26 -35 -40 0
-4 6 -19 23 -24 -26 37 0
-3 -12 -22 -25 26 -36 37 0
3 6 13 -18 34 35 38 0
2 10 12 17 18 -21 -24 0
-9 14 -17 -22 -31 -32 -38 0
-5 -10 -15 25 28 -37 39 0
3 4 6 23 31 35 39 0
1 -6 10 -20 26 -33 36 0
-3 8 -9 -10 19 -23 -39 0
-2 -7 -10 -17 -27 -29 33 0
-1 8 -13 19 -24 33 -37 0
-5 6 10 14 22 23 24 0
-2 5 -8 12 20 22 34 0
12 15 18 -22 -24 -25 38 0
-1 5 -8 -17 -29 36 -40 0
2 15 19 22 28 -29 -32 0
9 12 -17 -18 34 39 -40 0
-1 3 4 -12 -16 19 -28 0
-3 -14 16 -24 -26 -37 38 0
-2 15 -20 25 -30 31 -39 0
-4 5 18 -29 -32 -35 40 0
2 -8 -17 22 -25 -35 -40 0
-12 -14 -15 -18 -20 -31 39 0
-3 5 14 -22 -25 -29 30 0
-2 -19 29 30 -32 34 39 0
-4 8 -10 11 13 -19 -35 0
2 4 -10 -17 37 39 40 0
-1 -4 -8 14 -15 -33 40 0
4 -5 15 -23 -28 -31 -40 0
9 -12 -17 -19 -25 -29 30 0
2 -11 21 23 25 -30 31 0
3 -6 -16 17 20 -32 37 0
